33D32945 STP File, STP Format Version 1.0

SECTION Comment
Name    "i080-214"
Creator "Cees Duin"
Remark  "Incidence graph"
END

SECTION Graph
Nodes 80
Edges 350
E 1 8 297
E 1 11 303
E 1 12 297
E 1 21 203
E 1 23 197
E 1 36 202
E 1 43 196
E 1 55 198
E 1 56 204
E 1 57 193
E 1 59 201
E 2 7 309
E 2 10 298
E 2 38 202
E 2 39 189
E 2 52 199
E 2 55 201
E 2 60 203
E 2 72 194
E 2 76 191
E 3 13 302
E 3 16 304
E 3 20 203
E 3 26 196
E 3 41 207
E 3 47 200
E 3 71 203
E 3 76 202
E 4 13 301
E 4 59 199
E 4 68 202
E 5 7 299
E 5 18 206
E 5 20 196
E 5 54 194
E 5 59 202
E 5 68 202
E 5 72 192
E 6 10 304
E 6 34 194
E 6 51 198
E 6 60 198
E 6 69 196
E 6 73 199
E 6 77 207
E 7 12 300
E 7 14 297
E 7 21 208
E 7 24 194
E 7 33 205
E 7 44 205
E 7 54 194
E 7 57 206
E 7 73 191
E 7 79 197
E 8 16 300
E 8 17 192
E 8 19 205
E 8 20 195
E 8 28 198
E 8 37 203
E 8 47 194
E 8 58 204
E 8 62 195
E 8 64 191
E 8 66 204
E 8 69 199
E 8 75 201
E 9 30 203
E 9 32 197
E 9 35 200
E 9 36 199
E 9 50 203
E 9 52 204
E 9 66 205
E 9 67 200
E 10 15 299
E 10 17 199
E 10 28 191
E 10 51 200
E 10 72 191
E 10 73 197
E 10 75 199
E 11 27 196
E 11 33 205
E 11 34 194
E 11 45 206
E 11 52 201
E 11 53 206
E 11 55 207
E 11 64 206
E 11 66 202
E 11 71 201
E 12 14 294
E 12 15 298
E 12 16 287
E 12 21 195
E 12 24 204
E 12 51 198
E 12 53 201
E 12 55 205
E 12 63 191
E 12 69 204
E 12 77 208
E 13 33 193
E 13 40 200
E 13 46 196
E 13 49 198
E 13 64 197
E 13 65 196
E 13 71 212
E 13 78 194
E 14 18 202
E 14 19 201
E 14 21 202
E 14 31 197
E 14 33 198
E 14 38 197
E 14 49 195
E 14 55 200
E 14 56 205
E 14 59 195
E 15 17 196
E 15 26 192
E 15 27 198
E 15 50 202
E 15 59 203
E 16 19 211
E 16 25 189
E 16 54 202
E 16 65 206
E 16 69 196
E 16 72 194
E 17 30 91
E 17 33 105
E 17 37 101
E 17 48 102
E 18 47 98
E 18 48 97
E 18 53 96
E 18 54 104
E 18 58 104
E 18 75 90
E 18 76 98
E 19 31 102
E 19 32 102
E 19 37 103
E 19 46 93
E 19 52 94
E 19 55 101
E 19 59 100
E 19 63 95
E 19 64 101
E 20 24 91
E 20 30 97
E 20 52 99
E 20 60 101
E 20 68 100
E 20 80 104
E 21 29 104
E 21 31 102
E 21 35 97
E 21 36 95
E 21 44 92
E 21 49 98
E 21 56 95
E 22 25 91
E 22 32 106
E 22 40 97
E 22 41 97
E 22 47 102
E 22 49 95
E 22 57 107
E 22 59 103
E 22 75 100
E 23 25 102
E 23 40 98
E 23 51 98
E 23 52 94
E 23 74 96
E 24 32 105
E 24 36 93
E 24 39 99
E 24 61 100
E 24 72 95
E 24 77 98
E 24 80 101
E 25 28 103
E 25 36 101
E 25 49 99
E 25 58 101
E 25 72 103
E 25 74 105
E 26 31 104
E 26 64 107
E 26 65 94
E 27 31 106
E 27 43 105
E 27 59 94
E 28 29 97
E 28 51 100
E 29 35 95
E 29 40 107
E 29 45 98
E 29 54 103
E 29 66 96
E 29 68 104
E 29 69 107
E 29 76 96
E 30 39 94
E 30 42 104
E 30 52 101
E 30 54 95
E 30 67 107
E 31 32 104
E 31 35 103
E 31 40 112
E 31 41 108
E 31 52 96
E 31 68 103
E 31 70 110
E 32 44 103
E 32 50 102
E 32 54 96
E 32 57 95
E 33 36 97
E 33 41 97
E 33 46 109
E 33 48 98
E 33 51 107
E 33 56 105
E 33 75 101
E 33 76 96
E 34 35 103
E 34 37 101
E 34 43 95
E 34 55 112
E 34 56 102
E 34 67 97
E 34 70 94
E 34 76 95
E 35 43 98
E 35 44 106
E 35 49 99
E 35 53 99
E 36 40 101
E 36 45 98
E 36 53 101
E 36 60 101
E 36 69 107
E 36 72 100
E 36 79 102
E 37 49 100
E 37 58 99
E 37 68 98
E 38 39 107
E 38 47 106
E 38 48 103
E 38 50 99
E 38 51 105
E 38 56 98
E 38 67 93
E 38 68 97
E 38 72 103
E 38 77 95
E 38 78 107
E 39 53 108
E 39 65 103
E 40 48 99
E 40 50 98
E 40 51 103
E 40 63 100
E 40 80 104
E 41 50 99
E 41 51 99
E 41 66 94
E 42 48 99
E 42 51 102
E 42 73 96
E 43 44 100
E 43 49 97
E 43 56 106
E 43 63 93
E 43 65 108
E 43 68 106
E 43 71 101
E 43 73 104
E 43 78 99
E 44 56 103
E 44 59 99
E 44 80 104
E 45 57 99
E 45 58 99
E 45 72 102
E 46 49 98
E 46 54 97
E 46 68 103
E 46 69 96
E 46 70 101
E 47 56 97
E 47 73 105
E 47 74 97
E 47 75 91
E 48 57 104
E 48 61 106
E 48 67 97
E 48 69 89
E 49 61 104
E 49 75 96
E 49 78 104
E 50 78 105
E 51 53 91
E 51 65 100
E 52 60 102
E 52 62 97
E 52 68 98
E 52 72 101
E 53 70 101
E 54 58 94
E 55 61 99
E 55 72 106
E 55 79 102
E 56 58 95
E 56 68 94
E 56 70 96
E 57 62 100
E 57 63 102
E 57 75 95
E 59 61 94
E 59 73 87
E 60 62 100
E 61 62 100
E 61 72 105
E 61 79 96
E 62 65 96
E 62 66 91
E 62 71 111
E 62 77 102
E 63 65 94
E 63 72 104
E 63 80 95
E 65 67 83
E 65 73 102
E 66 70 98
E 66 78 95
E 67 70 97
E 67 78 97
E 69 78 101
E 72 78 106
E 76 79 92
END

SECTION Terminals
Terminals 16
T 1
T 2
T 3
T 4
T 5
T 6
T 7
T 8
T 9
T 10
T 11
T 12
T 13
T 14
T 15
T 16
END

EOF
